c 1 g_9_5
c 2 m_11
c 3 g_13_15
c 4 o_36
c 5 g_9_4
c 6 m_12
c 7 g_13_14
c 8 o_35
c 9 g_9_3
c 10 g_13_17
c 11 o_34
c 12 g_9_2
c 13 m_10
c 14 g_13_16
c 15 o_33
c 16 g_9_1
c 17 g_13_19
c 18 m_15
c 19 g_13_18
c 20 m_16
c 21 o_39
c 22 o_38
c 23 m_19
c 24 R_13
c 25 m_18
c 26 g_9_9
c 27 g_13_11
c 28 g_9_8
c 29 g_13_10
c 30 g_9_7
c 31 g_13_13
c 32 g_9_6
c 33 g_13_12
c 34 o_32
c 35 o_3_1
c 36 g_13_9
c 37 g_13_26
c 38 g_13_25
c 39 o_24
c 40 g_13_28
c 41 o_23
c 42 g_13_27
c 43 o_22
c 44 g_13_5
c 45 o_29
c 46 g_13_6
c 47 g_13_29
c 48 g_13_7
c 49 o_27
c 50 g_13_8
c 51 o_26
c 52 g_13_20
c 53 g_13_22
c 54 g_13_21
c 55 g_13_24
c 56 g_13_23
c 57 g_13_1
c 58 m_4_2
c 59 g_13_2
c 60 g_13_3
c 61 g_13_4
c 62 g_13_37
c 63 g_13_36
c 64 g_13_39
c 65 m_31
c 66 g_13_38
c 67 m_37
c 68 g_13_31
c 69 g_13_30
c 70 g_13_33
c 71 g_13_32
c 72 g_13_35
c 73 g_13_34
c 74 R
c 75 m_30
c 76 o_4_1
c 77 o_1
c 78 o_46
c 79 m_20
c 80 o_2
c 81 m_21
c 82 o_4
c 83 o_7
c 84 o_6
c 85 m_25
c 86 o_48
c 87 o_8
c 88 m_28
c 89 o_43
c 90 o_41
c 91 m_3_2
c 92 R_9
c 93 o_1_1
c 94 o_1_2
c 95 g_42_3
c 96 g_42_4
c 97 g_42_1
c 98 g_42_2
c 99 m_50
c 100 m_44
c 101 m_45
c 102 g_9_10
c 103 m_49
c 104 g_9_12
c 105 g_9_11
c 106 m_47
c 107 R_42
c 108 m_2_2
c 109 m_2_1
c 110 m_40
c 111 o_14
c 112 g_9_21
c 113 g_9_20
c 114 o_17
c 115 g_9_23
c 116 g_9_22
c 117 g_9_14
c 118 g_9_13
c 119 g_9_16
c 120 g_9_15
c 121 g_9_18
c 122 g_9_17
c 123 g_9_19
c 124 m_3
c 125 m_5
c 126 g_9_25
c 127 m_5_1
c 128 g_9_24
p cnf 128 479
74 0
24 -57 0
24 -59 0
24 -60 0
24 -61 0
24 -44 0
24 -46 0
24 -48 0
24 -50 0
24 -36 0
24 -29 0
24 -27 0
24 -33 0
24 -31 0
24 -7 0
24 -3 0
24 -14 0
24 -10 0
24 -19 0
24 -17 0
24 -52 0
24 -54 0
24 -53 0
24 -56 0
24 -55 0
24 -38 0
24 -37 0
24 -42 0
24 -40 0
24 -47 0
24 -69 0
24 -68 0
24 -71 0
24 -70 0
24 -73 0
24 -72 0
24 -63 0
24 -62 0
24 -66 0
24 -64 0
57 59 60 61 44 46 48 50 36 29 27 33 31 7 3 14 10 19 17 52 54 53 56 55 38 37 42 40 47 69 68 71 70 73 72 63 62 66 64 -24 0
74 -77 0
74 -80 0
74 -124 0
74 -82 0
74 -125 0
74 -84 0
74 -83 0
74 -87 0
74 -92 0
74 -13 0
74 -2 0
74 -6 0
74 -24 0
74 -111 0
74 -18 0
74 -20 0
74 -114 0
74 -25 0
74 -23 0
74 -79 0
74 -81 0
74 -43 0
74 -41 0
74 -39 0
74 -85 0
74 -51 0
74 -49 0
74 -88 0
74 -45 0
74 -75 0
74 -65 0
74 -34 0
74 -15 0
74 -11 0
74 -8 0
74 -4 0
74 -67 0
74 -22 0
74 -21 0
74 -110 0
74 -90 0
74 -107 0
74 -89 0
74 -100 0
74 -101 0
74 -78 0
74 -106 0
74 -86 0
74 -103 0
74 -99 0
124 -74 0
125 -74 0
92 -74 0
13 -74 0
2 -74 0
6 -74 0
24 -74 0
18 -74 0
20 -74 0
25 -74 0
23 -74 0
79 -74 0
81 -74 0
85 -74 0
88 -74 0
75 -74 0
65 -74 0
67 -74 0
110 -74 0
107 -74 0
100 -74 0
101 -74 0
106 -74 0
103 -74 0
99 -74 0
77 -93 0
77 -94 0
80 -109 0
80 -108 0
109 -80 0
108 -80 0
82 -76 0
82 -58 0
58 -82 0
92 -16 0
92 -12 0
92 -9 0
92 -5 0
92 -1 0
92 -32 0
92 -30 0
92 -28 0
92 -26 0
92 -102 0
92 -105 0
92 -104 0
92 -118 0
92 -117 0
92 -120 0
92 -119 0
92 -122 0
92 -121 0
92 -123 0
92 -113 0
92 -112 0
92 -116 0
92 -115 0
92 -128 0
92 -126 0
16 12 9 5 1 32 30 28 26 102 105 104 118 117 120 119 122 121 123 113 112 116 115 128 126 -92 0
-16 -12 0
-16 -9 0
-16 -5 0
-16 -1 0
-16 -32 0
-16 -30 0
-16 -28 0
-16 -26 0
-16 -102 0
-16 -105 0
-16 -104 0
-16 -118 0
-16 -117 0
-16 -120 0
-16 -119 0
-16 -122 0
-16 -121 0
-16 -123 0
-16 -113 0
-16 -112 0
-16 -116 0
-16 -115 0
-16 -128 0
-16 -126 0
-12 -9 0
-12 -5 0
-12 -1 0
-12 -32 0
-12 -30 0
-12 -28 0
-12 -26 0
-12 -102 0
-12 -105 0
-12 -104 0
-12 -118 0
-12 -117 0
-12 -120 0
-12 -119 0
-12 -122 0
-12 -121 0
-12 -123 0
-12 -113 0
-12 -112 0
-12 -116 0
-12 -115 0
-12 -128 0
-12 -126 0
-9 -5 0
-9 -1 0
-9 -32 0
-9 -30 0
-9 -28 0
-9 -26 0
-9 -102 0
-9 -105 0
-9 -104 0
-9 -118 0
-9 -117 0
-9 -120 0
-9 -119 0
-9 -122 0
-9 -121 0
-9 -123 0
-9 -113 0
-9 -112 0
-9 -116 0
-9 -115 0
-9 -128 0
-9 -126 0
-5 -1 0
-5 -32 0
-5 -30 0
-5 -28 0
-5 -26 0
-5 -102 0
-5 -105 0
-5 -104 0
-5 -118 0
-5 -117 0
-5 -120 0
-5 -119 0
-5 -122 0
-5 -121 0
-5 -123 0
-5 -113 0
-5 -112 0
-5 -116 0
-5 -115 0
-5 -128 0
-5 -126 0
-1 -32 0
-1 -30 0
-1 -28 0
-1 -26 0
-1 -102 0
-1 -105 0
-1 -104 0
-1 -118 0
-1 -117 0
-1 -120 0
-1 -119 0
-1 -122 0
-1 -121 0
-1 -123 0
-1 -113 0
-1 -112 0
-1 -116 0
-1 -115 0
-1 -128 0
-1 -126 0
-32 -30 0
-32 -28 0
-32 -26 0
-32 -102 0
-32 -105 0
-32 -104 0
-32 -118 0
-32 -117 0
-32 -120 0
-32 -119 0
-32 -122 0
-32 -121 0
-32 -123 0
-32 -113 0
-32 -112 0
-32 -116 0
-32 -115 0
-32 -128 0
-32 -126 0
-30 -28 0
-30 -26 0
-30 -102 0
-30 -105 0
-30 -104 0
-30 -118 0
-30 -117 0
-30 -120 0
-30 -119 0
-30 -122 0
-30 -121 0
-30 -123 0
-30 -113 0
-30 -112 0
-30 -116 0
-30 -115 0
-30 -128 0
-30 -126 0
-28 -26 0
-28 -102 0
-28 -105 0
-28 -104 0
-28 -118 0
-28 -117 0
-28 -120 0
-28 -119 0
-28 -122 0
-28 -121 0
-28 -123 0
-28 -113 0
-28 -112 0
-28 -116 0
-28 -115 0
-28 -128 0
-28 -126 0
-26 -102 0
-26 -105 0
-26 -104 0
-26 -118 0
-26 -117 0
-26 -120 0
-26 -119 0
-26 -122 0
-26 -121 0
-26 -123 0
-26 -113 0
-26 -112 0
-26 -116 0
-26 -115 0
-26 -128 0
-26 -126 0
-102 -105 0
-102 -104 0
-102 -118 0
-102 -117 0
-102 -120 0
-102 -119 0
-102 -122 0
-102 -121 0
-102 -123 0
-102 -113 0
-102 -112 0
-102 -116 0
-102 -115 0
-102 -128 0
-102 -126 0
-105 -104 0
-105 -118 0
-105 -117 0
-105 -120 0
-105 -119 0
-105 -122 0
-105 -121 0
-105 -123 0
-105 -113 0
-105 -112 0
-105 -116 0
-105 -115 0
-105 -128 0
-105 -126 0
-104 -118 0
-104 -117 0
-104 -120 0
-104 -119 0
-104 -122 0
-104 -121 0
-104 -123 0
-104 -113 0
-104 -112 0
-104 -116 0
-104 -115 0
-104 -128 0
-104 -126 0
-118 -117 0
-118 -120 0
-118 -119 0
-118 -122 0
-118 -121 0
-118 -123 0
-118 -113 0
-118 -112 0
-118 -116 0
-118 -115 0
-118 -128 0
-118 -126 0
-117 -120 0
-117 -119 0
-117 -122 0
-117 -121 0
-117 -123 0
-117 -113 0
-117 -112 0
-117 -116 0
-117 -115 0
-117 -128 0
-117 -126 0
-120 -119 0
-120 -122 0
-120 -121 0
-120 -123 0
-120 -113 0
-120 -112 0
-120 -116 0
-120 -115 0
-120 -128 0
-120 -126 0
-119 -122 0
-119 -121 0
-119 -123 0
-119 -113 0
-119 -112 0
-119 -116 0
-119 -115 0
-119 -128 0
-119 -126 0
-122 -121 0
-122 -123 0
-122 -113 0
-122 -112 0
-122 -116 0
-122 -115 0
-122 -128 0
-122 -126 0
-121 -123 0
-121 -113 0
-121 -112 0
-121 -116 0
-121 -115 0
-121 -128 0
-121 -126 0
-123 -113 0
-123 -112 0
-123 -116 0
-123 -115 0
-123 -128 0
-123 -126 0
-113 -112 0
-113 -116 0
-113 -115 0
-113 -128 0
-113 -126 0
-112 -116 0
-112 -115 0
-112 -128 0
-112 -126 0
-116 -115 0
-116 -128 0
-116 -126 0
-115 -128 0
-115 -126 0
-128 -126 0
107 -97 0
107 -98 0
107 -95 0
107 -96 0
97 98 95 96 -107 0
-97 -98 0
-97 -95 0
-97 -96 0
-98 -95 0
-98 -96 0
-95 -96 0
124 -35 0
124 -91 0
91 -124 0
125 -127 0
127 -125 0
40 47 -51 0
-122 1 110 0
-1 2 125 0
60 112 109 0
98 -106 -58 0
-47 64 99 0
-47 60 51 0
44 -112 109 0
19 -96 -112 0
122 110 35 0
40 -122 -110 0
-47 117 -87 0
